(set-info :smt-lib-version 2.6)
(set-logic QF_BV)
(set-info :source |
 Patrice Godefroid, SAGE (systematic dynamic test generation)
 For more information: http://research.microsoft.com/en-us/um/people/pg/public_psfiles/ndss2008.pdf
|)
(set-info :category "industrial")
(set-info :status sat)
(declare-fun T4_262 () (_ BitVec 32))
(declare-fun T1_262 () (_ BitVec 8))
(declare-fun T1_263 () (_ BitVec 8))
(declare-fun T1_264 () (_ BitVec 8))
(declare-fun T1_265 () (_ BitVec 8))
(assert (and true (= T4_262 (bvor (bvshl (bvor (bvshl (bvor (bvshl ((_ zero_extend 24) T1_265) (_ bv8 32)) ((_ zero_extend 24) T1_264)) (_ bv8 32)) ((_ zero_extend 24) T1_263)) (_ bv8 32)) ((_ zero_extend 24) T1_262))) (not (= (_ bv104 32) T4_262)) (not (= T4_262 (_ bv0 32)))))
(check-sat)
(exit)
